# Caffeine in a box
natom 24
ntypat 4
znucl 6 7 8 1
typat 1 1 1 1 1 1 1 1 2 2 2 2 3 3 4 4 4 4 4 4 4 4 4 4

acell  31.921872  31.119583  29.173454

rprim
  1.0 0.0 0.0
  0.0 1.0 0.0
  0.0 0.0 1.0

xangst
  8.883879  8.903825  7.568465
  9.329931  10.773719  5.875216
  9.702509  7.924807  8.144454
  10.029604  5.814023  9.436617
  11.004912  9.105684  6.794395
  7.797754  6.972902  9.284232
  7.466435  9.030419  7.860679
  5.531895  8.027783  9.128474
  9.230129  7.013817  9.116764
  9.729424  9.648020  6.717894
  11.000095  8.058492  7.660320
  6.982717  8.075879  8.827064
  7.285099  6.042038  9.890552
  6.702145  9.855644  7.382729
  8.686896  11.467774  6.435665
  8.763609  10.423715  5.000000
  9.759466  5.451678  10.437927
  9.861880  5.000000  8.717099
  10.215992  11.318367  5.523165
  11.097550  6.068841  9.435316
  11.892327  9.452249  6.255782
  5.366439  7.637579  10.142236
  5.100435  9.036708  9.078011
  5.000000  7.382901  8.415471
