!SP HF STO-3G
*xyz 0 1
C    0.28299900   0.63353900  -0.47855700
C    0.72905100   2.50343300  -2.17180600
C    1.10162900  -0.34547900   0.09743200
C    1.42872400  -2.45626300   1.38959500
C    2.40403200   0.83539800  -1.25262700
C   -0.80312600  -1.29738400   1.23721000
C   -1.13444500   0.76013300  -0.18634300
C   -3.06898500  -0.24250300   1.08145200
N    0.62924900  -1.25646900   1.06974200
N    1.12854400   1.37773400  -1.32912800
N    2.39921500  -0.21179400  -0.38670200
N   -1.61816300  -0.19440700   0.78004200
O   -1.31578100  -2.22824800   1.84353000
O   -1.89873500   1.58535800  -0.66429300
H    0.08601600   3.19748800  -1.61135700
H    0.16272900   2.15342900  -3.04702200
H    1.15858600  -2.81860800   2.39090500
H    1.26100000  -3.27028600   0.67007700
H    1.61511200   3.04808100  -2.52385700
H    2.49667000  -2.20144500   1.38829400
H    3.29144700   1.18196300  -1.79124000
H   -3.23444100  -0.63270700   2.09521400
H   -3.50044500   0.76642200   1.03098900
H   -3.60088000  -0.88738500   0.36844900
*
%pal
nprocs 1
end
%MaxCore 1000