SystemName       Caffeine
SystemLabel      caffeine
NumberOfAtoms    24
NumberOfSpecies  4

%block ChemicalSpeciesLabel
  1  6  C
  2  7  N
  3  8  O
  4  1  H
%endblock ChemicalSpeciesLabel

AtomicCoordinatesFormat Ang

%block AtomicCoordinatesAndAtomicSpecies
    8.883879    8.903825    7.568465  1
    9.329931   10.773719    5.875216  1
    9.702509    7.924807    8.144454  1
   10.029604    5.814023    9.436617  1
   11.004912    9.105684    6.794395  1
    7.797754    6.972902    9.284232  1
    7.466435    9.030419    7.860679  1
    5.531895    8.027783    9.128474  1
    9.230129    7.013817    9.116764  2
    9.729424    9.648020    6.717894  2
   11.000095    8.058492    7.660320  2
    6.982717    8.075879    8.827064  2
    7.285099    6.042038    9.890552  3
    6.702145    9.855644    7.382729  3
    8.686896   11.467774    6.435665  4
    8.763609   10.423715    5.000000  4
    9.759466    5.451678   10.437927  4
    9.861880    5.000000    8.717099  4
   10.215992   11.318367    5.523165  4
   11.097550    6.068841    9.435316  4
   11.892327    9.452249    6.255782  4
    5.366439    7.637579   10.142236  4
    5.100435    9.036708    9.078011  4
    5.000000    7.382901    8.415471  4
%endblock AtomicCoordinatesAndAtomicSpecies

LatticeConstant 1.0 Ang
%block LatticeVectors
  16.892327  0.000000  0.000000
  0.000000  16.467774  0.000000
  0.000000  0.000000  15.437927
%endblock LatticeVectors
