SystemName       Caffeine (Bohr)
SystemLabel      caffeine
NumberOfAtoms    24
NumberOfSpecies  4

%block ChemicalSpeciesLabel
  1  6  C
  2  7  N
  3  8  O
  4  1  H
%endblock ChemicalSpeciesLabel

%block AtomicCoordinatesAndAtomicSpecies
     16.788098     16.825791     14.302326  1
     17.631014     20.359378     11.102549  1
     18.335085     14.975715     15.390787  1
     18.953205     10.986911     17.832622  1
     20.796270     17.207249     12.839546  1
     14.735619     13.176875     17.544656  1
     14.109517     17.065019     14.854530  1
     10.453767     15.170311     17.250316  1
     17.442416     13.254193     17.228187  2
     18.385947     18.232115     12.694980  2
     20.787167     15.228343     14.475907  2
     13.195423     15.261200     16.680733  2
     13.766842     11.417797     18.690435  3
     12.665218     18.624468     13.951336  3
     16.415854     21.670952     12.161644  4
     16.560821     19.697967      9.448631  4
     18.442718     10.302178     19.724823  4
     18.636252      9.448631     16.472930  4
     19.305427     21.388614     10.437269  4
     20.971330     11.468447     17.830163  4
     22.473241     17.862162     11.821715  4
     10.141100     14.432933     19.166048  4
      9.638425     17.076903     17.154955  4
      9.448631     13.951661     15.902935  4
%endblock AtomicCoordinatesAndAtomicSpecies

LatticeConstant 31.921872
%block LatticeVectors
  1.000000  0.000000  0.000000
  0.000000  0.974867  0.000000
  0.000000  0.000000  0.913902
%endblock LatticeVectors
