&SYSTEM
  ibrav = 0
  nat = 24
  ntyp = 4
/
CELL_PARAMETERS angstrom
  16.892327  0.000000  0.000000
  0.000000  16.467774  0.000000
  0.000000  0.000000  15.437927
ATOMIC_SPECIES
  C  12.011  C_PP
  N  14.007  N_PP
  O  15.999  O_PP
  H  1.008  H_PP
ATOMIC_POSITIONS angstrom
  C  8.883879  8.903825  7.568465
  C  9.329931  10.773719  5.875216
  C  9.702509  7.924807  8.144454
  C  10.029604  5.814023  9.436617
  C  11.004912  9.105684  6.794395
  C  7.797754  6.972902  9.284232
  C  7.466435  9.030419  7.860679
  C  5.531895  8.027783  9.128474
  N  9.230129  7.013817  9.116764
  N  9.729424  9.648020  6.717894
  N  11.000095  8.058492  7.660320
  N  6.982717  8.075879  8.827064
  O  7.285099  6.042038  9.890552
  O  6.702145  9.855644  7.382729
  H  8.686896  11.467774  6.435665
  H  8.763609  10.423715  5.000000
  H  9.759466  5.451678  10.437927
  H  9.861880  5.000000  8.717099
  H  10.215992  11.318367  5.523165
  H  11.097550  6.068841  9.435316
  H  11.892327  9.452249  6.255782
  H  5.366439  7.637579  10.142236
  H  5.100435  9.036708  9.078011
  H  5.000000  7.382901  8.415471
